db/data/3212114339264348833321588564222879108.z3.out
sat
-------------------
874.257262197
